outputs/case_266.model.txt
full_power_trading = True
false_or_conceal = False
open_account_for_others = False
false_accounting = False
use_others_name = False
illegal_disclosure = False
illegal_advertisement = False
loan_or_mediator = False
fraudulent_contract = False
non_employee_doing_business = True
misuse_funds = False
unauthorized_place = False
violate_self_regulation = False
other_illegal_behavior = False
self_interest = False
false_name = False
refuse_or_obstruct_inspection = False
prohibited_behaviors = False
refuse_inspection = True
violate_article_84_2_pre = True
violate_article_87_1 = True
fail_to_announce_documents = True
violate_article_104_2 = False
violate_article_10_1 = False
violate_article_88 = False
fail_to_keep_documents = False
violate_order_45_2_post = False
violate_article_97_1_3 = True
violate_article_65_1 = False
fail_to_report_documents = False
violate_order_98_1 = True
violate_article_72_1 = False
violate_article_105 = False
violate_order_8_2 = False
violate_order_82_3 = True
violate_article_97_1_1 = True
violate_article_70_1 = False
violate_article_18 = True
refuse_provide_info = True
violate_order_56_5 = False
fail_to_produce_documents = True
violate_article_57_1 = False
violate_article_80_3 = False
violate_article_79 = True
violate_article_5 = False
refuse_to_appear = False
violate_article_3_2_but = True
violate_article_82_2 = False
violate_article_45_2_pre = True
violate_order_80_4 = True
violate_article_85_1 = True
violate_article_66_1 = True
violate_order_85_2 = True
violate_article_74 = True
violate_article_64 = True
violate_article_73 = False
overdue_report = True
violate_article_55 = True
violate_article_67 = True
violate_article_56_4 = False
violate_article_78_1 = False
violate_order_93 = False
obstruct_inspection = False
obstruct_investigation = False
violate_article_81 = True
minor_violation = True
involves_forex = False
perform_salesperson_duties = True
training_completed = False
dismissed = True
reported_to_authority = False
consulted_central_bank = False
personnel_changed = True
reported_within_5_days = False
id_replaced_or_returned = False
disqualify_19 = False
qualify_20_21 = True
violate_23_24 = True
honest_and_faithful = False
registration_completed = False
business_responsibility = True
subject_to_clearing = True
regulations_submitted = True
exchange_trading = True
exemption_announced = False
cleared_at_designated_clearinghouse = True
futures_option_contract = False
option_contract = False
futures_contract = True
swap_contract = False
other_contracts = False
leverage_margin_contract = False
centralized_clearing_required = True
violate_order = False
management_regulations_submitted = True
definition_of_futures_trading = True
non_exchange_trading_exemption = True
violation_occurred = False
registration_must_return_or_replace_id = False
penalty_119_violations = True
penalty_imposed = False
registration_must_report_change = False
registration_allowed = False
post_dismissal_reported = False
honesty_and_faithfulness = False
penalty = False
non_salesperson_restriction = False
business_liability_before_registration = True
violate_law = False
forex_clearing_consultation = True
penalty_119_minor_exemption = False